amountOfEmployees = 25;
horizonLength = 7;
amountOfShifts = 4;

shiftsPerDay = [|6,1,0,0,
|1,0,5,0,
|0,0,3,0,
|2,3,0,0,
|1,0,0,0,
|5,1,0,0,
|1,0,6,0,
|];

preferences = array3d(1..25,1..7,1..4,[3,3,3,3,1,1,1,1,1,1,1,1,1,1,1,1,3,3,3,3,3,3,3,3,1,1,1,1,3,1,3,1,1,2,1,1,1,2,1,1,1,2,1,1,3,1,3,1,3,1,3,1,1,2,1,1,4,3,4,3,4,4,4,4,4,4,4,4,4,4,4,4,4,3,4,3,4,3,4,3,4,4,4,4,3,4,3,4,1,4,1,1,1,4,1,1,1,4,1,1,3,4,3,4,3,4,3,4,1,4,1,1,1,4,1,4,1,4,1,1,1,4,1,1,1,4,1,1,1,4,1,4,1,4,1,4,1,4,1,1,2,1,2,1,4,2,4,4,4,2,4,4,4,2,4,4,2,1,2,1,2,1,2,1,4,2,4,4,1,3,1,3,4,3,4,4,4,3,4,4,4,3,4,4,1,3,1,3,1,3,1,3,4,3,4,4,4,2,4,2,2,3,2,2,2,3,2,2,2,3,2,2,4,2,4,2,4,2,4,2,2,3,2,2,1,3,1,3,2,1,2,2,2,1,2,2,2,1,2,2,1,3,1,3,1,3,1,3,2,1,2,2,2,1,2,1,2,1,2,2,2,1,2,2,2,1,2,2,2,1,2,1,2,1,2,1,2,1,2,2,1,3,1,3,2,1,2,2,2,1,2,2,2,1,2,2,1,3,1,3,1,3,1,3,2,1,2,2,4,3,4,3,4,4,4,4,4,4,4,4,4,4,4,4,4,3,4,3,4,3,4,3,4,4,4,4,3,4,3,4,1,3,1,1,1,3,1,1,1,3,1,1,3,4,3,4,3,4,3,4,1,3,1,1,3,2,3,2,3,1,3,3,3,1,3,3,3,1,3,3,3,2,3,2,3,2,3,2,3,1,3,3,1,1,1,1,2,1,2,2,2,1,2,2,2,1,2,2,1,1,1,1,1,1,1,1,2,1,2,2,3,3,3,3,1,3,1,1,1,3,1,1,1,3,1,1,3,3,3,3,3,3,3,3,1,3,1,1,1,1,1,1,2,2,2,2,2,2,2,2,2,2,2,2,1,1,1,1,1,1,1,1,2,2,2,2,4,3,4,3,2,1,2,2,2,1,2,2,2,1,2,2,4,3,4,3,4,3,4,3,2,1,2,2,2,4,2,4,3,2,3,3,3,2,3,3,3,2,3,3,2,4,2,4,2,4,2,4,3,2,3,3,4,1,4,1,1,2,1,1,1,2,1,1,1,2,1,1,4,1,4,1,4,1,4,1,1,2,1,1,1,3,1,3,3,1,3,3,3,1,3,3,3,1,3,3,1,3,1,3,1,3,1,3,3,1,3,3,1,4,1,4,3,2,3,3,3,2,3,3,3,2,3,3,1,4,1,4,1,4,1,4,3,2,3,3,1,1,1,1,1,1,1,1,1,1,1,1,1,1,1,1,1,1,1,1,1,1,1,1,1,1,1,1,3,4,3,4,2,2,2,2,2,2,2,2,2,2,2,2,3,4,3,4,3,4,3,4,2,2,2,2,3,4,3,4,1,2,1,1,1,2,1,1,1,2,1,1,3,4,3,4,3,4,3,4,1,2,1,1,]);

minShifts = 5;
maxShifts = 5;
minConsecShifts = 1;
maxConsecShifts = 7;

minConsecSameShifts = [1,1,1,1];
maxConsecSameShifts = [7,7,7,7];

minPerShifts = [0,0,0,0];
maxPerShifts = [7,7,7,7];